Gurobi 8.1.1 (win64, Python) logging started 08/23/19 17:28:11

Academic license - for non-commercial use only
Warning for adding constraints: zero or small (< 1e-13) coefficients, ignored
Optimize a model with 13258 rows, 13410 columns and 1646567 nonzeros
Coefficient statistics:
  Matrix range     [1e-13, 5e+02]
  Objective range  [1e+00, 1e+00]
  Bounds range     [0e+00, 0e+00]
  RHS range        [2e-03, 5e-01]
Warning: Model contains large matrix coefficient range
         Consider reformulating model or setting NumericFocus parameter
         to avoid numerical issues.

Concurrent LP optimizer: dual simplex and barrier
Showing barrier log only...

Presolve removed 63 rows and 2845 columns
Presolve time: 0.62s
Presolved: 13195 rows, 10565 columns, 1643665 nonzeros

Ordering time: 0.00s

Barrier statistics:
 Dense cols : 165
 Free vars  : 165
 AA' NZ     : 1.636e+06
 Factor NZ  : 1.775e+06 (roughly 25 MBytes of memory)
 Factor Ops : 2.856e+08 (less than 1 second per iteration)
 Threads    : 3

                  Objective                Residual
Iter       Primal          Dual         Primal    Dual     Compl     Time
   0   1.60552174e+01 -2.46301862e-02  7.59e+03 1.73e-16  2.68e-01     1s
   1   1.59030658e+01 -1.72471786e+00  3.70e+03 2.30e-07  5.96e-02     1s
   2   2.94725505e-01 -1.70466031e+00  1.39e-12 3.60e-07  1.25e-04     1s
   3   1.98824096e-01 -1.03367830e+00  7.98e-13 6.58e-06  7.67e-05     1s
   4   1.20359502e-01 -7.16828727e-01  8.17e-13 1.24e-05  5.14e-05     2s
   5   1.14304306e-01 -4.99930323e-01  1.04e-12 1.14e-05  3.63e-05     2s
   6   8.56659014e-02 -4.49874629e-01  2.13e-12 2.25e-05  3.27e-05     2s
   7   1.02167785e-01 -4.29536843e-01  1.71e-12 2.12e-05  3.14e-05     2s
   8   1.05395626e-01 -3.22506372e-01  1.23e-12 1.54e-05  2.45e-05     2s
   9   1.13813571e-01 -2.25530407e-01  1.54e-12 1.63e-05  1.79e-05     2s
  10   1.01877974e-01 -2.13532725e-01  3.08e-12 1.66e-05  1.71e-05     2s
  11   7.46344488e-02 -1.40150018e-01  2.07e-12 1.99e-05  1.18e-05     2s
  12   6.26225251e-02 -1.36494186e-01  5.41e-12 2.00e-05  1.14e-05     2s
  13   6.13368712e-02 -9.06950635e-02  3.91e-12 1.40e-05  8.68e-06     2s
  14   7.60771843e-02 -8.43622357e-02  4.76e-12 1.34e-05  8.29e-06     2s
  15   7.28466428e-02 -7.50094343e-02  3.06e-12 1.20e-05  7.70e-06     3s
  16   4.93889392e-02 -4.67010976e-02  2.36e-12 8.94e-06  5.37e-06     3s
  17   3.30822203e-02 -2.16213179e-02  6.05e-13 5.63e-06  3.25e-06     3s
  18   3.14019778e-02  1.74463204e-03  4.19e-13 2.70e-06  1.79e-06     3s
  19   2.78419361e-02  1.31738235e-02  1.49e-13 1.28e-06  8.98e-07     3s
  20   2.61773059e-02  2.02242756e-02  1.08e-13 4.56e-07  3.69e-07     3s
  21   2.49884969e-02  2.17456569e-02  9.09e-14 2.93e-07  2.02e-07     3s
  22   2.45651953e-02  2.26420736e-02  7.72e-14 1.79e-07  1.20e-07     3s
  23   2.42738915e-02  2.30680669e-02  5.99e-14 1.20e-07  7.51e-08     3s
  24   2.40930538e-02  2.33986222e-02  6.37e-14 7.13e-08  4.33e-08     3s
  25   2.40074314e-02  2.34977163e-02  5.79e-14 5.63e-08  3.18e-08     3s
  26   2.39544310e-02  2.36268714e-02  5.46e-14 3.76e-08  2.04e-08     4s
  27   2.39274256e-02  2.38377628e-02  6.81e-14 1.07e-08  5.60e-09     4s
  28   2.39189710e-02  2.38912137e-02  6.53e-14 2.49e-09  1.74e-09     4s
  29   2.39158176e-02  2.39067607e-02  4.90e-14 8.43e-10  5.66e-10     4s
  30   2.39134131e-02  2.39092397e-02  5.36e-14 8.10e-10  2.64e-10     4s
  31   2.39124694e-02  2.39111602e-02  5.26e-14 7.49e-10  8.69e-11     4s
  32   2.39121687e-02  2.39116322e-02  6.90e-14 3.32e-09  2.16e-11     4s
  33   2.39120684e-02  2.39118555e-02  5.88e-14 2.22e-09  4.22e-12     4s
  34   2.39120460e-02  2.39120973e-02  4.84e-14 4.99e-09  1.40e-12     4s
  35   2.39120407e-02  2.39117719e-02  5.51e-14 2.06e-08  8.55e-13     4s
  36   2.39120360e-02  2.39119122e-02  6.15e-14 1.24e-08  3.72e-13     5s

Barrier solved model in 36 iterations and 4.67 seconds
Optimal objective 2.39120360e-02

Crossover log...

     320 DPushes remaining with DInf 5.3288925e-01                 5s
     196 DPushes remaining with DInf 2.8428550e+02                 5s
       0 DPushes remaining with DInf 1.7026472e+01                 5s

     116 PPushes remaining with PInf 4.4663715e-04                 5s
       0 PPushes remaining with PInf 8.4993654e-04                 6s

  Push phase complete: Pinf 8.4993654e-04, Dinf 2.2831826e+00      6s

Iteration    Objective       Primal Inf.    Dual Inf.      Time
     433    2.3911992e-02   0.000000e+00   2.283183e+00      7s
     621    2.3912027e-02   3.189079e-04   0.000000e+00     10s
Extra 72 simplex iterations after uncrush
     693    2.3912034e-02   0.000000e+00   0.000000e+00     12s

Solved with barrier
Solved in 693 iterations and 11.52 seconds
Optimal objective  2.391203376e-02